n_res = 4;
rcap = [18, 24, 108, 85];
rtype = [1, 1, 2, 2];
n_tasks = 18;
modes = [ {1, 2, 3}, {4, 5, 6}, {7, 8, 9}, {10, 11, 12}, {13, 14, 15}, {16, 17, 18}, {19, 20, 21}, {22, 23, 24}, {25, 26, 27}, {28, 29, 30}, {31, 32, 33}, {34, 35, 36}, {37, 38, 39}, {40, 41, 42}, {43, 44, 45}, {46, 47, 48}, {49, 50, 51}, {52, 53, 54} ];
succ = [ {8, 11, 18}, {5, 7, 16}, {4, 10}, {6, 8}, {9}, {7, 14, 15}, {13, 18}, {13, 14, 16}, {10, 12}, {14}, {15, 16}, {13, 15, 18}, {17}, {17}, {17}, {}, {}, {} ];
n_opt = 54;
dur = [1, 6, 9, 4, 4, 6, 1, 3, 4, 2, 5, 8, 1, 1, 7, 2, 6, 10, 2, 4, 8, 6, 8, 10, 1, 8, 9, 3, 5, 8, 2, 3, 9, 3, 4, 5, 6, 8, 9, 1, 6, 9, 4, 5, 10, 2, 9, 10, 5, 5, 7, 4, 5, 6];
rreq = [|  7,  5,  4,  5,  7,  5,  5,  5,  3, 10, 10, 10,  6,  6,  5,  6,  5,  4,  6,  6,  6,  5,  5,  2,  7,  6,  6,  7,  7,  7,  9,  9,  9,  7,  7,  6,  3,  2,  2,  7,  4,  4,  4,  2,  1,  7,  5,  3,  5,  5,  5,  2,  2,  1
        |  3,  3,  3,  6,  9,  4,  4,  4,  2,  5,  5,  3,  8,  7,  3,  5,  5,  4,  5,  5,  2,  9,  9,  9,  6,  5,  5,  5,  4,  2,  8,  8,  8,  7,  5,  1,  8,  7,  7, 10,  9,  7,  7,  5,  1, 10, 10, 10,  6,  5,  1,  2,  1,  1
        |  7,  0,  7,  3,  0,  3,  6,  0,  0,  5,  4,  3,  0,  7,  6,  0,  0,  6,  0, 10,  0,  0,  0,  3, 10,  0,  9,  8,  3,  0,  0,  4,  3,  0,  8,  8,  0,  0,  0, 10,  9,  8,  7,  0,  6,  0,  0,  0,  3,  6,  0,  8,  7,  6
        |  0,  4,  0,  0,  4,  0,  0,  5,  3,  0,  0,  0,  6,  0,  0,  8,  6,  0,  5,  0,  5,  8,  6,  0,  0,  3,  0,  0,  0,  3,  7,  0,  0,  7,  0,  0,  8,  8,  7,  0,  0,  0,  0,  2,  0,  9,  9,  9,  0,  0,  6,  0,  0,  0 |];
